(set-logic QF_NIA)

(define-fun arcmax ((a Int) (b Int)) Int
(ite (>= a b) a b))

(define-fun arcsum ((a Int) (b Int)) Int
(ite (and (> a -1) (> b -1)) (+ a b) (ite (<= a -1) b a)))

(define-fun arcgg ((a Int) (b Int)) Bool
(ite (or (> a b) (and (<= a -1) (<= b -1))) true false))

(declare-fun f000 () Int)
(declare-fun f001 () Int)
(declare-fun f010 () Int)
(declare-fun f011 () Int)
(declare-fun f10 () Int)
(declare-fun f11 () Int)
(declare-fun g000 () Int)
(declare-fun g001 () Int)
(declare-fun g010 () Int)
(declare-fun g011 () Int)
(declare-fun g10 () Int)
(declare-fun g11 () Int)
(declare-fun h000 () Int)
(declare-fun h001 () Int)
(declare-fun h010 () Int)
(declare-fun h011 () Int)
(declare-fun h10 () Int)
(declare-fun h11 () Int)
(assert (> f000 -1))
(assert (>= f001 -1))
(assert (>= f010 -1))
(assert (>= f011 -1))
(assert (or (> f10 -1) (and (= 0 f10) (= 0 f11))))
(assert (>= f11 -1))
(assert (> g000 -1))
(assert (>= g001 -1))
(assert (>= g010 -1))
(assert (>= g011 -1))
(assert (or (> g10 -1) (and (= 0 g10) (= 0 g11))))
(assert (>= g11 -1))
(assert (> h000 -1))
(assert (>= h001 -1))
(assert (>= h010 -1))
(assert (>= h011 -1))
(assert (or (> h10 -1) (and (= 0 h10) (= 0 h11))))
(assert (>= h11 -1))
(assert (and (arcgg (arcmax (arcsum (arcmax (arcsum g000 f000) (arcsum g001 f010)) f000) (arcsum (arcmax (arcsum g000 f001) (arcsum g001 f011)) f010)) h000) (arcgg (arcmax (arcsum (arcmax (arcsum g000 f000) (arcsum g001 f010)) f001) (arcsum (arcmax (arcsum g000 f001) (arcsum g001 f011)) f011)) h001) (arcgg (arcmax (arcsum (arcmax (arcsum g010 f000) (arcsum g011 f010)) f000) (arcsum (arcmax (arcsum g010 f001) (arcsum g011 f011)) f010)) h010) (arcgg (arcmax (arcsum (arcmax (arcsum g010 f000) (arcsum g011 f010)) f001) (arcsum (arcmax (arcsum g010 f001) (arcsum g011 f011)) f011)) h011)))
(assert (and (arcgg (arcmax (arcmax (arcsum (arcmax (arcsum g000 f000) (arcsum g001 f010)) f10) (arcsum (arcmax (arcsum g000 f001) (arcsum g001 f011)) f11)) (arcmax (arcmax (arcsum g000 f10) (arcsum g001 f11)) g10)) h10) (arcgg (arcmax (arcmax (arcsum (arcmax (arcsum g010 f000) (arcsum g011 f010)) f10) (arcsum (arcmax (arcsum g010 f001) (arcsum g011 f011)) f11)) (arcmax (arcmax (arcsum g010 f10) (arcsum g011 f11)) g11)) h11)))
(assert (and (arcgg h000 f000) (arcgg h001 f001) (arcgg h010 f010) (arcgg h011 f011)))
(assert (and (arcgg h10 f10) (arcgg h11 f11)))

(check-sat)
(get-model)
(exit)